
Gurobi 9.1.2 (win64, Java) logging started Sat Nov  6 09:51:56 2021

Academic license - for non-commercial use only - expires 2022-10-30
Gurobi Optimizer version 9.1.2 build v9.1.2rc0 (win64)
Thread count: 6 physical cores, 12 logical processors, using up to 12 threads
Optimize a model with 50 rows, 400 columns and 800 nonzeros
Model fingerprint: 0x46a5f168
Variable types: 0 continuous, 400 integer (400 binary)
Coefficient statistics:
  Matrix range     [1e+00, 1e+03]
  Objective range  [4e+02, 1e+03]
  Bounds range     [1e+00, 1e+00]
  RHS range        [1e+00, 2e+03]
Found heuristic solution: objective 17745.000000
Presolve removed 0 rows and 120 columns
Presolve time: 0.00s
Presolved: 50 rows, 280 columns, 560 nonzeros
Variable types: 0 continuous, 280 integer (280 binary)
Presolved: 50 rows, 280 columns, 560 nonzeros


Root relaxation: objective 2.123678e+04, 185 iterations, 0.00 seconds

    Nodes    |    Current Node    |     Objective Bounds      |     Work
 Expl Unexpl |  Obj  Depth IntInf | Incumbent    BestBd   Gap | It/Node Time

     0     0 21236.7814    0   15 17745.0000 21236.7814  19.7%     -    0s
H    0     0                    20165.000000 21236.7814  5.32%     -    0s
     0     0 20828.0000    0   26 20165.0000 20828.0000  3.29%     -    0s
     0     0 20828.0000    0   25 20165.0000 20828.0000  3.29%     -    0s
     0     0 20827.9394    0   27 20165.0000 20827.9394  3.29%     -    0s
     0     0 20827.9394    0   18 20165.0000 20827.9394  3.29%     -    0s
H    0     0                    20254.000000 20827.9394  2.83%     -    0s
H    0     0                    20645.000000 20827.9394  0.89%     -    0s
H    0     0                    20746.000000 20827.9394  0.39%     -    0s
     0     2 20827.9394    0   16 20746.0000 20827.9394  0.39%     -    0s
H   70    73                    20750.000000 20826.0000  0.37%   9.0    0s
H  127   141                    20786.000000 20826.0000  0.19%   7.7    0s
H  484   498                    20797.000000 20826.0000  0.14%   7.8    0s
H  598   498                    20805.000000 20826.0000  0.10%   7.7    0s
H 1287   553                    20808.000367 20824.0004  0.08%   8.8    1s
H 1287   525                    20811.000349 20824.0004  0.06%   8.8    1s
H 1288   499                    20813.000000 20824.0004  0.05%   8.8    1s
H 1295   479                    20815.000000 20824.0004  0.04%   8.7    1s
H 1322   472                    20821.000000 20824.0000  0.01%  10.5    2s
H 1346   465                    20822.000000 20824.0000  0.01%  11.4    2s

Cutting planes:
  Gomory: 11
  Cover: 4
  MIR: 6
  StrongCG: 4
  Flow cover: 1
  Zero half: 1

Explored 1346 nodes (17038 simplex iterations) in 2.84 seconds
Thread count was 12 (of 12 available processors)

Solution count 10: 20822 20821 20815 ... 20786

Optimal solution found (tolerance 1.00e-04)
Best objective 2.082200000000e+04, best bound 2.082400000000e+04, gap 0.0096%
